\ This file has been generated by DOcplex
\ ENCODING=ISO-8859-1
\Problem name: LotSizing

Minimize
 obj: z
Subject To
 c1: z - 300 y_0 - 300 y_1 - 300 y_2 - 300 y_3 - 300 y_4 - 300 y_5 - 300 y_6
     - 300 y_7 - i_0 - i_1 - i_2 - i_3 - i_4 - i_5 - i_6 - i_7 = 0
 c2: i_1 - x_1 - i_0 = -100
 c3: i_2 - x_2 - i_1 = 0
 c4: i_3 - x_3 - i_2 = -200
 c5: i_4 - x_4 - i_3 = -50
 c6: i_5 - x_5 - i_4 = -100
 c7: i_6 - x_6 - i_5 = 0
 c8: i_7 - x_7 - i_6 = -100
 c9: 100000 y_1 - x_1 >= 0
 c10: 100000 y_2 - x_2 >= 0
 c11: 100000 y_3 - x_3 >= 0
 c12: 100000 y_4 - x_4 >= 0
 c13: 100000 y_5 - x_5 >= 0
 c14: 100000 y_6 - x_6 >= 0
 c15: 100000 y_7 - x_7 >= 0

Bounds
 0 <= y_0 <= 1
 0 <= y_1 <= 1
 0 <= y_2 <= 1
 0 <= y_3 <= 1
 0 <= y_4 <= 1
 0 <= y_5 <= 1
 0 <= y_6 <= 1
 0 <= y_7 <= 1
       i_0 = 0

Binaries
 y_0 y_1 y_2 y_3 y_4 y_5 y_6 y_7
End
